NAME : CMT3Y
TYPE : MVRPB
DIMENSION : 101
VEHICLES : 5
CAPACITY : 20000
EDGE_WEIGHT_TYPE : EXACT_2D
NODE_COORD_SECTION
1 35 35
2 41 49
3 35 17
4 55 45
5 55 20
6 15 30
7 25 30
8 20 50
9 10 43
10 55 60
11 30 60
12 20 65
13 50 35
14 30 25
15 15 10
16 30 5
17 10 20
18 5 30
19 20 40
20 15 60
21 45 65
22 45 20
23 45 10
24 55 5
25 65 35
26 65 20
27 45 30
28 35 40
29 41 37
30 64 42
31 40 60
32 31 52
33 35 69
34 53 52
35 65 55
36 63 65
37 2 60
38 20 20
39 5 5
40 60 12
41 40 25
42 42 7
43 24 12
44 23 3
45 11 14
46 6 38
47 2 48
48 8 56
49 13 52
50 6 68
51 47 47
52 49 58
53 27 43
54 37 31
55 57 29
56 63 23
57 53 12
58 32 12
59 36 26
60 21 24
61 17 34
62 12 24
63 24 58
64 27 69
65 15 77
66 62 77
67 49 73
68 67 5
69 56 39
70 37 47
71 37 56
72 57 68
73 47 16
74 44 17
75 46 13
76 49 11
77 49 42
78 53 43
79 61 52
80 57 48
81 56 37
82 55 54
83 15 47
84 14 37
85 11 31
86 16 22
87 4 18
88 28 18
89 26 52
90 26 35
91 31 67
92 15 19
93 22 22
94 18 24
95 26 27
96 25 24
97 22 27
98 25 21
99 19 21
100 20 26
101 18 18
PICKUP_AND_DELIVERY_SECTION
1 0 0 10000000 0 0 0
2 0 0 10000000 0 837 163
3 0 0 10000000 0 340 360
4 0 0 10000000 0 1064 236
5 0 0 10000000 0 691 1209
6 0 0 10000000 0 1300 1300
7 0 0 10000000 0 250 50
8 0 0 10000000 0 200 300
9 0 0 10000000 0 209 691
10 0 0 10000000 0 1467 133
11 0 0 10000000 0 800 800
12 0 0 10000000 0 369 831
13 0 0 10000000 0 1330 570
14 0 0 10000000 0 1917 383
15 0 0 10000000 0 1333 667
16 0 0 10000000 0 133 667
17 0 0 10000000 0 950 950
18 0 0 10000000 0 33 167
19 0 0 10000000 0 600 600
20 0 0 10000000 0 425 1275
21 0 0 10000000 0 623 277
22 0 0 10000000 0 489 611
23 0 0 10000000 0 400 1400
24 0 0 10000000 0 264 2636
25 0 0 10000000 0 162 138
26 0 0 10000000 0 185 415
27 0 0 10000000 0 1133 567
28 0 0 10000000 0 1400 200
29 0 0 10000000 0 1444 156
30 0 0 10000000 0 591 309
31 0 0 10000000 0 1400 700
32 0 0 10000000 0 1610 1090
33 0 0 10000000 0 1167 1133
34 0 0 10000000 0 1079 21
35 0 0 10000000 0 1185 215
36 0 0 10000000 0 775 25
37 0 0 10000000 0 17 483
38 0 0 10000000 0 800 0
39 0 0 10000000 0 1600 0
40 0 0 10000000 0 620 2480
41 0 0 10000000 0 563 338
42 0 0 10000000 0 83 417
43 0 0 10000000 0 250 250
44 0 0 10000000 0 91 609
45 0 0 10000000 0 1414 386
46 0 0 10000000 0 253 1347
47 0 0 10000000 0 4 96
48 0 0 10000000 0 386 2314
49 0 0 10000000 0 900 2700
50 0 0 10000000 0 265 2735
51 0 0 10000000 0 1300 0
52 0 0 10000000 0 845 155
53 0 0 10000000 0 565 335
54 0 0 10000000 0 1173 227
55 0 0 10000000 0 916 884
56 0 0 10000000 0 73 127
57 0 0 10000000 0 136 464
58 0 0 10000000 0 263 438
59 0 0 10000000 0 1300 500
60 0 0 10000000 0 2450 350
61 0 0 10000000 0 150 150
62 0 0 10000000 0 650 650
63 0 0 10000000 0 786 1114
64 0 0 10000000 0 391 609
65 0 0 10000000 0 175 725
66 0 0 10000000 0 1610 390
67 0 0 10000000 0 1678 822
68 0 0 10000000 0 187 2313
69 0 0 10000000 0 2507 1093
70 0 0 10000000 0 472 128
71 0 0 10000000 0 330 170
72 0 0 10000000 0 1257 243
73 0 0 10000000 0 851 1649
74 0 0 10000000 0 348 552
75 0 0 10000000 0 226 574
76 0 0 10000000 0 404 1396
77 0 0 10000000 0 1114 186
78 0 0 10000000 0 1136 264
79 0 0 10000000 0 256 44
80 0 0 10000000 0 1937 363
81 0 0 10000000 0 396 204
82 0 0 10000000 0 2553 47
83 0 0 10000000 0 511 1089
84 0 0 10000000 0 416 684
85 0 0 10000000 0 248 452
86 0 0 10000000 0 2982 1118
87 0 0 10000000 0 778 2722
88 0 0 10000000 0 1671 929
89 0 0 10000000 0 450 450
90 0 0 10000000 0 1114 386
91 0 0 10000000 0 139 161
92 0 0 10000000 0 79 21
93 0 0 10000000 0 200 0
94 0 0 10000000 0 1650 550
95 0 0 10000000 0 2600 100
96 0 0 10000000 0 1920 80
97 0 0 10000000 0 896 204
98 0 0 10000000 0 1008 192
99 0 0 10000000 0 905 95
100 0 0 10000000 0 692 208
101 0 0 10000000 0 1700 0
DEPOT_SECTION
1 
-1
EOF
